JulietBench/Juliet_Based_Patch_Bench/linux/CWE-189-Numeric-Errors/CVE_2010_3067_75e1c70fc31490ef8a373ea2a4bea2524099b478/solverdo_io_submit_Snippet_patch2.smt2
; benchmark generated from python API
(set-info :status unknown)
(declare-fun R () (_ BitVec 32))
(declare-fun rdi () (_ BitVec 64))
(assert
 (let (($x64 (= (_ bv4294967274 32) R)))
 (let ((?x15 (bvlshr rdi (_ bv63 64))))
 (let ((?x13 ((_ extract 0 0) ?x15)))
 (let (($x7 (and (distinct (_ bv0 1) ?x13) true)))
 (let (($x65 (and $x7 $x64)))
 (let ((?x60 ((_ extract 31 0) rdi)))
 (let (($x61 (= R ?x60)))
 (let (($x37 (= (_ bv0 1) ?x13)))
 (let (($x62 (and $x37 $x61)))
 (let (($x66 (or $x62 $x65)))
 (let (($x67 (not $x66)))
 (let (($x68 (or $x62 $x65 $x67)))
 (not $x68))))))))))))))
(check-sat)
